s 1
v -1 -1684300902 1768515943 926365492 -5 -757935410 -1600085861 1852730984 1010580533 168430082 -11 -1515870820 -13 1094795574 252645123 -589505328 17 2021161066 19 -20 -505290287 -1347440738 2105376107 1263225656 -25 -421075246 -1263225697 -2105376148 1347440697 505290246 -31 -32 -2021161107 1431655738 35 -252645164 37 -1936946066 1515870779 -40 -168430123 -1010580574 -1852731025 1600085820 757935369 -46 -926365533 -1768515984 1684300861 -50 -51 -842150492 -1684300943 1768515902 -55 84215000 -757935451 -58 1852730943 1010580492 168430041 -673720410 -63 -64 1094795533 252645082 -589505369 68 2021161025 -70 336860123 -72 -1347440779 2105376066 1263225615 421075164 -421075287 78 -79 1347440656 505290205 -336860246 -1179010697 -84 1431655697 589505246 -252645205 -88 -89 -90 -91 -92 -93 -1852731066 -95 757935328 -84215123 98 -1768516025 1684300820 
t 14ms